(set-option :produce-models true)
(set-logic QF_LRA)
(set-info :notes | Strip-packing problem.|)
(declare-fun x0 () Real)
(declare-fun y0 () Real)
(declare-fun x1 () Real)
(declare-fun y1 () Real)
(declare-fun x2 () Real)
(declare-fun y2 () Real)
(declare-fun x3 () Real)
(declare-fun y3 () Real)
(declare-fun x4 () Real)
(declare-fun y4 () Real)
(declare-fun x5 () Real)
(declare-fun y5 () Real)
(declare-fun x6 () Real)
(declare-fun y6 () Real)
(declare-fun x7 () Real)
(declare-fun y7 () Real)
(declare-fun x8 () Real)
(declare-fun y8 () Real)
(declare-fun x9 () Real)
(declare-fun y9 () Real)
(declare-fun x10 () Real)
(declare-fun y10 () Real)
(declare-fun x11 () Real)
(declare-fun y11 () Real)
(declare-fun x12 () Real)
(declare-fun y12 () Real)
(declare-fun x13 () Real)
(declare-fun y13 () Real)
(declare-fun x14 () Real)
(declare-fun y14 () Real)
(declare-fun z () Real)
(declare-fun c () Real)
(assert (and (= c z) (and (>= x0 0) 
(and (>= y0 0) 
(and (>= x1 0) 
(and (>= y1 0) 
(and (>= x2 0) 
(and (>= y2 0) 
(and (>= x3 0) 
(and (>= y3 0) 
(and (>= x4 0) 
(and (>= y4 0) 
(and (>= x5 0) 
(and (>= y5 0) 
(and (>= x6 0) 
(and (>= y6 0) 
(and (>= x7 0) 
(and (>= y7 0) 
(and (>= x8 0) 
(and (>= y8 0) 
(and (>= x9 0) 
(and (>= y9 0) 
(and (>= x10 0) 
(and (>= y10 0) 
(and (>= x11 0) 
(and (>= y11 0) 
(and (>= x12 0) 
(and (>= y12 0) 
(and (>= x13 0) 
(and (>= y13 0) 
(and (>= x14 0) 
(and (>= y14 0) 
(and (>= z 0) 
(and (>= c 0) 
(and (<= (+ x0 0.6290393278) z) 
(and (<= 0.9992539023 y0) 
(and (<= y0 1.9364916731) 
(and (<= x0 (- 4.8836436172 0.6290393278)) 
(and (>= x0 0) 
(and (<= (+ x1 0.8404575703) z) 
(and (<= 0.979900409 y1) 
(and (<= y1 1.9364916731) 
(and (<= x1 (- 4.8836436172 0.8404575703)) 
(and (>= x1 0) 
(and (<= (+ x2 0.9506677469) z) 
(and (<= 0.9617334116 y2) 
(and (<= y2 1.9364916731) 
(and (<= x2 (- 4.8836436172 0.9506677469)) 
(and (>= x2 0) 
(and (<= (+ x3 0.0222543215) z) 
(and (<= 0.8880746012 y3) 
(and (<= y3 1.9364916731) 
(and (<= x3 (- 4.8836436172 0.0222543215)) 
(and (>= x3 0) 
(and (<= (+ x4 0.9184992363) z) 
(and (<= 0.8792499376 y4) 
(and (<= y4 1.9364916731) 
(and (<= x4 (- 4.8836436172 0.9184992363)) 
(and (>= x4 0) 
(and (<= (+ x5 0.2447328137) z) 
(and (<= 0.8735907933 y5) 
(and (<= y5 1.9364916731) 
(and (<= x5 (- 4.8836436172 0.2447328137)) 
(and (>= x5 0) 
(and (<= (+ x6 0.0465640878) z) 
(and (<= 0.7983297523 y6) 
(and (<= y6 1.9364916731) 
(and (<= x6 (- 4.8836436172 0.0465640878)) 
(and (>= x6 0) 
(and (<= (+ x7 0.9225782161) z) 
(and (<= 0.7863832105 y7) 
(and (<= y7 1.9364916731) 
(and (<= x7 (- 4.8836436172 0.9225782161)) 
(and (>= x7 0) 
(and (<= (+ x8 0.8997646322) z) 
(and (<= 0.4910729428 y8) 
(and (<= y8 1.9364916731) 
(and (<= x8 (- 4.8836436172 0.8997646322)) 
(and (>= x8 0) 
(and (<= (+ x9 0.1569270711) z) 
(and (<= 0.4772006892 y9) 
(and (<= y9 1.9364916731) 
(and (<= x9 (- 4.8836436172 0.1569270711)) 
(and (>= x9 0) 
(and (<= (+ x10 0.5037475077) z) 
(and (<= 0.2797594291 y10) 
(and (<= y10 1.9364916731) 
(and (<= x10 (- 4.8836436172 0.5037475077)) 
(and (>= x10 0) 
(and (<= (+ x11 0.9905891606) z) 
(and (<= 0.269315848 y11) 
(and (<= y11 1.9364916731) 
(and (<= x11 (- 4.8836436172 0.9905891606)) 
(and (>= x11 0) 
(and (<= (+ x12 0.1571580454) z) 
(and (<= 0.1634224706 y12) 
(and (<= y12 1.9364916731) 
(and (<= x12 (- 4.8836436172 0.1571580454)) 
(and (>= x12 0) 
(and (<= (+ x13 0.0552992449) z) 
(and (<= 0.1181998665 y13) 
(and (<= y13 1.9364916731) 
(and (<= x13 (- 4.8836436172 0.0552992449)) 
(and (>= x13 0) 
(and (<= (+ x14 0.6968716629) z) 
(and (<= 0.0997863171 y14) 
(and (<= y14 1.9364916731) 
(and (<= x14 (- 4.8836436172 0.6968716629)) 
(and (>= x14 0) 
(and (<= c 4.8836436172) 
(and (or (<= (+ x0 0.6290393278) x1) (or (<= (+ x1 0.8404575703) x0) (or (>= (- y0 0.9992539023) y1) (or (>= (- y1 0.979900409) y0))))) 
(and (or (<= (+ x0 0.6290393278) x2) (or (<= (+ x2 0.9506677469) x0) (or (>= (- y0 0.9992539023) y2) (or (>= (- y2 0.9617334116) y0))))) 
(and (or (<= (+ x0 0.6290393278) x3) (or (<= (+ x3 0.0222543215) x0) (or (>= (- y0 0.9992539023) y3) (or (>= (- y3 0.8880746012) y0))))) 
(and (or (<= (+ x0 0.6290393278) x4) (or (<= (+ x4 0.9184992363) x0) (or (>= (- y0 0.9992539023) y4) (or (>= (- y4 0.8792499376) y0))))) 
(and (or (<= (+ x0 0.6290393278) x5) (or (<= (+ x5 0.2447328137) x0) (or (>= (- y0 0.9992539023) y5) (or (>= (- y5 0.8735907933) y0))))) 
(and (or (<= (+ x0 0.6290393278) x6) (or (<= (+ x6 0.0465640878) x0) (or (>= (- y0 0.9992539023) y6) (or (>= (- y6 0.7983297523) y0))))) 
(and (or (<= (+ x0 0.6290393278) x7) (or (<= (+ x7 0.9225782161) x0) (or (>= (- y0 0.9992539023) y7) (or (>= (- y7 0.7863832105) y0))))) 
(and (or (<= (+ x0 0.6290393278) x8) (or (<= (+ x8 0.8997646322) x0) (or (>= (- y0 0.9992539023) y8) (or (>= (- y8 0.4910729428) y0))))) 
(and (or (<= (+ x0 0.6290393278) x9) (or (<= (+ x9 0.1569270711) x0) (or (>= (- y0 0.9992539023) y9) (or (>= (- y9 0.4772006892) y0))))) 
(and (or (<= (+ x0 0.6290393278) x10) (or (<= (+ x10 0.5037475077) x0) (or (>= (- y0 0.9992539023) y10) (or (>= (- y10 0.2797594291) y0))))) 
(and (or (<= (+ x0 0.6290393278) x11) (or (<= (+ x11 0.9905891606) x0) (or (>= (- y0 0.9992539023) y11) (or (>= (- y11 0.269315848) y0))))) 
(and (or (<= (+ x0 0.6290393278) x12) (or (<= (+ x12 0.1571580454) x0) (or (>= (- y0 0.9992539023) y12) (or (>= (- y12 0.1634224706) y0))))) 
(and (or (<= (+ x0 0.6290393278) x13) (or (<= (+ x13 0.0552992449) x0) (or (>= (- y0 0.9992539023) y13) (or (>= (- y13 0.1181998665) y0))))) 
(and (or (<= (+ x0 0.6290393278) x14) (or (<= (+ x14 0.6968716629) x0) (or (>= (- y0 0.9992539023) y14) (or (>= (- y14 0.0997863171) y0))))) 
(and (or (<= (+ x1 0.8404575703) x2) (or (<= (+ x2 0.9506677469) x1) (or (>= (- y1 0.979900409) y2) (or (>= (- y2 0.9617334116) y1))))) 
(and (or (<= (+ x1 0.8404575703) x3) (or (<= (+ x3 0.0222543215) x1) (or (>= (- y1 0.979900409) y3) (or (>= (- y3 0.8880746012) y1))))) 
(and (or (<= (+ x1 0.8404575703) x4) (or (<= (+ x4 0.9184992363) x1) (or (>= (- y1 0.979900409) y4) (or (>= (- y4 0.8792499376) y1))))) 
(and (or (<= (+ x1 0.8404575703) x5) (or (<= (+ x5 0.2447328137) x1) (or (>= (- y1 0.979900409) y5) (or (>= (- y5 0.8735907933) y1))))) 
(and (or (<= (+ x1 0.8404575703) x6) (or (<= (+ x6 0.0465640878) x1) (or (>= (- y1 0.979900409) y6) (or (>= (- y6 0.7983297523) y1))))) 
(and (or (<= (+ x1 0.8404575703) x7) (or (<= (+ x7 0.9225782161) x1) (or (>= (- y1 0.979900409) y7) (or (>= (- y7 0.7863832105) y1))))) 
(and (or (<= (+ x1 0.8404575703) x8) (or (<= (+ x8 0.8997646322) x1) (or (>= (- y1 0.979900409) y8) (or (>= (- y8 0.4910729428) y1))))) 
(and (or (<= (+ x1 0.8404575703) x9) (or (<= (+ x9 0.1569270711) x1) (or (>= (- y1 0.979900409) y9) (or (>= (- y9 0.4772006892) y1))))) 
(and (or (<= (+ x1 0.8404575703) x10) (or (<= (+ x10 0.5037475077) x1) (or (>= (- y1 0.979900409) y10) (or (>= (- y10 0.2797594291) y1))))) 
(and (or (<= (+ x1 0.8404575703) x11) (or (<= (+ x11 0.9905891606) x1) (or (>= (- y1 0.979900409) y11) (or (>= (- y11 0.269315848) y1))))) 
(and (or (<= (+ x1 0.8404575703) x12) (or (<= (+ x12 0.1571580454) x1) (or (>= (- y1 0.979900409) y12) (or (>= (- y12 0.1634224706) y1))))) 
(and (or (<= (+ x1 0.8404575703) x13) (or (<= (+ x13 0.0552992449) x1) (or (>= (- y1 0.979900409) y13) (or (>= (- y13 0.1181998665) y1))))) 
(and (or (<= (+ x1 0.8404575703) x14) (or (<= (+ x14 0.6968716629) x1) (or (>= (- y1 0.979900409) y14) (or (>= (- y14 0.0997863171) y1))))) 
(and (or (<= (+ x2 0.9506677469) x3) (or (<= (+ x3 0.0222543215) x2) (or (>= (- y2 0.9617334116) y3) (or (>= (- y3 0.8880746012) y2))))) 
(and (or (<= (+ x2 0.9506677469) x4) (or (<= (+ x4 0.9184992363) x2) (or (>= (- y2 0.9617334116) y4) (or (>= (- y4 0.8792499376) y2))))) 
(and (or (<= (+ x2 0.9506677469) x5) (or (<= (+ x5 0.2447328137) x2) (or (>= (- y2 0.9617334116) y5) (or (>= (- y5 0.8735907933) y2))))) 
(and (or (<= (+ x2 0.9506677469) x6) (or (<= (+ x6 0.0465640878) x2) (or (>= (- y2 0.9617334116) y6) (or (>= (- y6 0.7983297523) y2))))) 
(and (or (<= (+ x2 0.9506677469) x7) (or (<= (+ x7 0.9225782161) x2) (or (>= (- y2 0.9617334116) y7) (or (>= (- y7 0.7863832105) y2))))) 
(and (or (<= (+ x2 0.9506677469) x8) (or (<= (+ x8 0.8997646322) x2) (or (>= (- y2 0.9617334116) y8) (or (>= (- y8 0.4910729428) y2))))) 
(and (or (<= (+ x2 0.9506677469) x9) (or (<= (+ x9 0.1569270711) x2) (or (>= (- y2 0.9617334116) y9) (or (>= (- y9 0.4772006892) y2))))) 
(and (or (<= (+ x2 0.9506677469) x10) (or (<= (+ x10 0.5037475077) x2) (or (>= (- y2 0.9617334116) y10) (or (>= (- y10 0.2797594291) y2))))) 
(and (or (<= (+ x2 0.9506677469) x11) (or (<= (+ x11 0.9905891606) x2) (or (>= (- y2 0.9617334116) y11) (or (>= (- y11 0.269315848) y2))))) 
(and (or (<= (+ x2 0.9506677469) x12) (or (<= (+ x12 0.1571580454) x2) (or (>= (- y2 0.9617334116) y12) (or (>= (- y12 0.1634224706) y2))))) 
(and (or (<= (+ x2 0.9506677469) x13) (or (<= (+ x13 0.0552992449) x2) (or (>= (- y2 0.9617334116) y13) (or (>= (- y13 0.1181998665) y2))))) 
(and (or (<= (+ x2 0.9506677469) x14) (or (<= (+ x14 0.6968716629) x2) (or (>= (- y2 0.9617334116) y14) (or (>= (- y14 0.0997863171) y2))))) 
(and (or (<= (+ x3 0.0222543215) x4) (or (<= (+ x4 0.9184992363) x3) (or (>= (- y3 0.8880746012) y4) (or (>= (- y4 0.8792499376) y3))))) 
(and (or (<= (+ x3 0.0222543215) x5) (or (<= (+ x5 0.2447328137) x3) (or (>= (- y3 0.8880746012) y5) (or (>= (- y5 0.8735907933) y3))))) 
(and (or (<= (+ x3 0.0222543215) x6) (or (<= (+ x6 0.0465640878) x3) (or (>= (- y3 0.8880746012) y6) (or (>= (- y6 0.7983297523) y3))))) 
(and (or (<= (+ x3 0.0222543215) x7) (or (<= (+ x7 0.9225782161) x3) (or (>= (- y3 0.8880746012) y7) (or (>= (- y7 0.7863832105) y3))))) 
(and (or (<= (+ x3 0.0222543215) x8) (or (<= (+ x8 0.8997646322) x3) (or (>= (- y3 0.8880746012) y8) (or (>= (- y8 0.4910729428) y3))))) 
(and (or (<= (+ x3 0.0222543215) x9) (or (<= (+ x9 0.1569270711) x3) (or (>= (- y3 0.8880746012) y9) (or (>= (- y9 0.4772006892) y3))))) 
(and (or (<= (+ x3 0.0222543215) x10) (or (<= (+ x10 0.5037475077) x3) (or (>= (- y3 0.8880746012) y10) (or (>= (- y10 0.2797594291) y3))))) 
(and (or (<= (+ x3 0.0222543215) x11) (or (<= (+ x11 0.9905891606) x3) (or (>= (- y3 0.8880746012) y11) (or (>= (- y11 0.269315848) y3))))) 
(and (or (<= (+ x3 0.0222543215) x12) (or (<= (+ x12 0.1571580454) x3) (or (>= (- y3 0.8880746012) y12) (or (>= (- y12 0.1634224706) y3))))) 
(and (or (<= (+ x3 0.0222543215) x13) (or (<= (+ x13 0.0552992449) x3) (or (>= (- y3 0.8880746012) y13) (or (>= (- y13 0.1181998665) y3))))) 
(and (or (<= (+ x3 0.0222543215) x14) (or (<= (+ x14 0.6968716629) x3) (or (>= (- y3 0.8880746012) y14) (or (>= (- y14 0.0997863171) y3))))) 
(and (or (<= (+ x4 0.9184992363) x5) (or (<= (+ x5 0.2447328137) x4) (or (>= (- y4 0.8792499376) y5) (or (>= (- y5 0.8735907933) y4))))) 
(and (or (<= (+ x4 0.9184992363) x6) (or (<= (+ x6 0.0465640878) x4) (or (>= (- y4 0.8792499376) y6) (or (>= (- y6 0.7983297523) y4))))) 
(and (or (<= (+ x4 0.9184992363) x7) (or (<= (+ x7 0.9225782161) x4) (or (>= (- y4 0.8792499376) y7) (or (>= (- y7 0.7863832105) y4))))) 
(and (or (<= (+ x4 0.9184992363) x8) (or (<= (+ x8 0.8997646322) x4) (or (>= (- y4 0.8792499376) y8) (or (>= (- y8 0.4910729428) y4))))) 
(and (or (<= (+ x4 0.9184992363) x9) (or (<= (+ x9 0.1569270711) x4) (or (>= (- y4 0.8792499376) y9) (or (>= (- y9 0.4772006892) y4))))) 
(and (or (<= (+ x4 0.9184992363) x10) (or (<= (+ x10 0.5037475077) x4) (or (>= (- y4 0.8792499376) y10) (or (>= (- y10 0.2797594291) y4))))) 
(and (or (<= (+ x4 0.9184992363) x11) (or (<= (+ x11 0.9905891606) x4) (or (>= (- y4 0.8792499376) y11) (or (>= (- y11 0.269315848) y4))))) 
(and (or (<= (+ x4 0.9184992363) x12) (or (<= (+ x12 0.1571580454) x4) (or (>= (- y4 0.8792499376) y12) (or (>= (- y12 0.1634224706) y4))))) 
(and (or (<= (+ x4 0.9184992363) x13) (or (<= (+ x13 0.0552992449) x4) (or (>= (- y4 0.8792499376) y13) (or (>= (- y13 0.1181998665) y4))))) 
(and (or (<= (+ x4 0.9184992363) x14) (or (<= (+ x14 0.6968716629) x4) (or (>= (- y4 0.8792499376) y14) (or (>= (- y14 0.0997863171) y4))))) 
(and (or (<= (+ x5 0.2447328137) x6) (or (<= (+ x6 0.0465640878) x5) (or (>= (- y5 0.8735907933) y6) (or (>= (- y6 0.7983297523) y5))))) 
(and (or (<= (+ x5 0.2447328137) x7) (or (<= (+ x7 0.9225782161) x5) (or (>= (- y5 0.8735907933) y7) (or (>= (- y7 0.7863832105) y5))))) 
(and (or (<= (+ x5 0.2447328137) x8) (or (<= (+ x8 0.8997646322) x5) (or (>= (- y5 0.8735907933) y8) (or (>= (- y8 0.4910729428) y5))))) 
(and (or (<= (+ x5 0.2447328137) x9) (or (<= (+ x9 0.1569270711) x5) (or (>= (- y5 0.8735907933) y9) (or (>= (- y9 0.4772006892) y5))))) 
(and (or (<= (+ x5 0.2447328137) x10) (or (<= (+ x10 0.5037475077) x5) (or (>= (- y5 0.8735907933) y10) (or (>= (- y10 0.2797594291) y5))))) 
(and (or (<= (+ x5 0.2447328137) x11) (or (<= (+ x11 0.9905891606) x5) (or (>= (- y5 0.8735907933) y11) (or (>= (- y11 0.269315848) y5))))) 
(and (or (<= (+ x5 0.2447328137) x12) (or (<= (+ x12 0.1571580454) x5) (or (>= (- y5 0.8735907933) y12) (or (>= (- y12 0.1634224706) y5))))) 
(and (or (<= (+ x5 0.2447328137) x13) (or (<= (+ x13 0.0552992449) x5) (or (>= (- y5 0.8735907933) y13) (or (>= (- y13 0.1181998665) y5))))) 
(and (or (<= (+ x5 0.2447328137) x14) (or (<= (+ x14 0.6968716629) x5) (or (>= (- y5 0.8735907933) y14) (or (>= (- y14 0.0997863171) y5))))) 
(and (or (<= (+ x6 0.0465640878) x7) (or (<= (+ x7 0.9225782161) x6) (or (>= (- y6 0.7983297523) y7) (or (>= (- y7 0.7863832105) y6))))) 
(and (or (<= (+ x6 0.0465640878) x8) (or (<= (+ x8 0.8997646322) x6) (or (>= (- y6 0.7983297523) y8) (or (>= (- y8 0.4910729428) y6))))) 
(and (or (<= (+ x6 0.0465640878) x9) (or (<= (+ x9 0.1569270711) x6) (or (>= (- y6 0.7983297523) y9) (or (>= (- y9 0.4772006892) y6))))) 
(and (or (<= (+ x6 0.0465640878) x10) (or (<= (+ x10 0.5037475077) x6) (or (>= (- y6 0.7983297523) y10) (or (>= (- y10 0.2797594291) y6))))) 
(and (or (<= (+ x6 0.0465640878) x11) (or (<= (+ x11 0.9905891606) x6) (or (>= (- y6 0.7983297523) y11) (or (>= (- y11 0.269315848) y6))))) 
(and (or (<= (+ x6 0.0465640878) x12) (or (<= (+ x12 0.1571580454) x6) (or (>= (- y6 0.7983297523) y12) (or (>= (- y12 0.1634224706) y6))))) 
(and (or (<= (+ x6 0.0465640878) x13) (or (<= (+ x13 0.0552992449) x6) (or (>= (- y6 0.7983297523) y13) (or (>= (- y13 0.1181998665) y6))))) 
(and (or (<= (+ x6 0.0465640878) x14) (or (<= (+ x14 0.6968716629) x6) (or (>= (- y6 0.7983297523) y14) (or (>= (- y14 0.0997863171) y6))))) 
(and (or (<= (+ x7 0.9225782161) x8) (or (<= (+ x8 0.8997646322) x7) (or (>= (- y7 0.7863832105) y8) (or (>= (- y8 0.4910729428) y7))))) 
(and (or (<= (+ x7 0.9225782161) x9) (or (<= (+ x9 0.1569270711) x7) (or (>= (- y7 0.7863832105) y9) (or (>= (- y9 0.4772006892) y7))))) 
(and (or (<= (+ x7 0.9225782161) x10) (or (<= (+ x10 0.5037475077) x7) (or (>= (- y7 0.7863832105) y10) (or (>= (- y10 0.2797594291) y7))))) 
(and (or (<= (+ x7 0.9225782161) x11) (or (<= (+ x11 0.9905891606) x7) (or (>= (- y7 0.7863832105) y11) (or (>= (- y11 0.269315848) y7))))) 
(and (or (<= (+ x7 0.9225782161) x12) (or (<= (+ x12 0.1571580454) x7) (or (>= (- y7 0.7863832105) y12) (or (>= (- y12 0.1634224706) y7))))) 
(and (or (<= (+ x7 0.9225782161) x13) (or (<= (+ x13 0.0552992449) x7) (or (>= (- y7 0.7863832105) y13) (or (>= (- y13 0.1181998665) y7))))) 
(and (or (<= (+ x7 0.9225782161) x14) (or (<= (+ x14 0.6968716629) x7) (or (>= (- y7 0.7863832105) y14) (or (>= (- y14 0.0997863171) y7))))) 
(and (or (<= (+ x8 0.8997646322) x9) (or (<= (+ x9 0.1569270711) x8) (or (>= (- y8 0.4910729428) y9) (or (>= (- y9 0.4772006892) y8))))) 
(and (or (<= (+ x8 0.8997646322) x10) (or (<= (+ x10 0.5037475077) x8) (or (>= (- y8 0.4910729428) y10) (or (>= (- y10 0.2797594291) y8))))) 
(and (or (<= (+ x8 0.8997646322) x11) (or (<= (+ x11 0.9905891606) x8) (or (>= (- y8 0.4910729428) y11) (or (>= (- y11 0.269315848) y8))))) 
(and (or (<= (+ x8 0.8997646322) x12) (or (<= (+ x12 0.1571580454) x8) (or (>= (- y8 0.4910729428) y12) (or (>= (- y12 0.1634224706) y8))))) 
(and (or (<= (+ x8 0.8997646322) x13) (or (<= (+ x13 0.0552992449) x8) (or (>= (- y8 0.4910729428) y13) (or (>= (- y13 0.1181998665) y8))))) 
(and (or (<= (+ x8 0.8997646322) x14) (or (<= (+ x14 0.6968716629) x8) (or (>= (- y8 0.4910729428) y14) (or (>= (- y14 0.0997863171) y8))))) 
(and (or (<= (+ x9 0.1569270711) x10) (or (<= (+ x10 0.5037475077) x9) (or (>= (- y9 0.4772006892) y10) (or (>= (- y10 0.2797594291) y9))))) 
(and (or (<= (+ x9 0.1569270711) x11) (or (<= (+ x11 0.9905891606) x9) (or (>= (- y9 0.4772006892) y11) (or (>= (- y11 0.269315848) y9))))) 
(and (or (<= (+ x9 0.1569270711) x12) (or (<= (+ x12 0.1571580454) x9) (or (>= (- y9 0.4772006892) y12) (or (>= (- y12 0.1634224706) y9))))) 
(and (or (<= (+ x9 0.1569270711) x13) (or (<= (+ x13 0.0552992449) x9) (or (>= (- y9 0.4772006892) y13) (or (>= (- y13 0.1181998665) y9))))) 
(and (or (<= (+ x9 0.1569270711) x14) (or (<= (+ x14 0.6968716629) x9) (or (>= (- y9 0.4772006892) y14) (or (>= (- y14 0.0997863171) y9))))) 
(and (or (<= (+ x10 0.5037475077) x11) (or (<= (+ x11 0.9905891606) x10) (or (>= (- y10 0.2797594291) y11) (or (>= (- y11 0.269315848) y10))))) 
(and (or (<= (+ x10 0.5037475077) x12) (or (<= (+ x12 0.1571580454) x10) (or (>= (- y10 0.2797594291) y12) (or (>= (- y12 0.1634224706) y10))))) 
(and (or (<= (+ x10 0.5037475077) x13) (or (<= (+ x13 0.0552992449) x10) (or (>= (- y10 0.2797594291) y13) (or (>= (- y13 0.1181998665) y10))))) 
(and (or (<= (+ x10 0.5037475077) x14) (or (<= (+ x14 0.6968716629) x10) (or (>= (- y10 0.2797594291) y14) (or (>= (- y14 0.0997863171) y10))))) 
(and (or (<= (+ x11 0.9905891606) x12) (or (<= (+ x12 0.1571580454) x11) (or (>= (- y11 0.269315848) y12) (or (>= (- y12 0.1634224706) y11))))) 
(and (or (<= (+ x11 0.9905891606) x13) (or (<= (+ x13 0.0552992449) x11) (or (>= (- y11 0.269315848) y13) (or (>= (- y13 0.1181998665) y11))))) 
(and (or (<= (+ x11 0.9905891606) x14) (or (<= (+ x14 0.6968716629) x11) (or (>= (- y11 0.269315848) y14) (or (>= (- y14 0.0997863171) y11))))) 
(and (or (<= (+ x12 0.1571580454) x13) (or (<= (+ x13 0.0552992449) x12) (or (>= (- y12 0.1634224706) y13) (or (>= (- y13 0.1181998665) y12))))) 
(and (or (<= (+ x12 0.1571580454) x14) (or (<= (+ x14 0.6968716629) x12) (or (>= (- y12 0.1634224706) y14) (or (>= (- y14 0.0997863171) y12))))) 
(and (or (<= (+ x13 0.0552992449) x14) (or (<= (+ x14 0.6968716629) x13) (or (>= (- y13 0.1181998665) y14) (or (>= (- y14 0.0997863171) y13))))) )))))))))))))))))))))))))))))))))))))))))))))))))))))))))))))))))))))))))))))))))))))))))))))))))))))))))))))))))))))))))))))))))))))))))))))))))))))))))))))))))))))))))))))))))))))))))))))))))))))))))))))))))))))))
(minimize c)
(check-sat)
(get-objectives)
(exit)
